NAME : XML100_2232_26
DIMENSION : 101
NB_CLUSTERS : 5
CLUSTERING_ALG : DBSCAN
CLUSTERING_PARAMS : eps(121), minSamples(3)
CLUSTERS
1 0
2 1 3 9 11 14 33 34 36 45 58 64 74 77 83 94 95 97 98
3 2 8 18 23 37 48 52 68 70 76 85 86 93 100
4 4 5 6 10 13 15 16 19 20 21 24 25 26 27 28 29 30 31 32 35 38 39 42 43 44 46 50 53 54 55 60 61 63 65 66 69 71 72 73 78 79 80 81 82 84 87 88 91 99
5 7 12 17 22 40 41 47 49 51 56 57 59 62 67 75 89 90 92 96
EOF